single_objective/SL-DABL/OP/problems/op/OPLib-master/solutions/ea4op/gen1/fl417-gen1-50.sol
NAME : fl417
TYPE : OP
DIMENSION : 417
COST_LIMIT : 5931
ROUTE_NODES : 224
ROUTE_SCORE : 224
ROUTE_COST : 5931
NODE_SEQUENCE_SECTION
1
8
22
25
32
24
26
18
19
10
16
7
5
6
13
20
27
17
12
2
4
3
9
11
15
14
30
29
23
153
151
129
152
128
126
150
127
149
125
148
124
146
122
144
123
147
145
121
143
141
119
142
120
118
140
116
114
138
117
139
115
137
135
113
136
112
134
110
132
111
133
109
131
107
130
108
106
308
307
333
306
305
332
304
323
331
348
347
346
322
303
321
345
344
343
302
330
301
300
329
342
341
328
320
299
298
340
33
35
65
69
93
89
90
94
87
73
77
82
83
78
91
95
84
88
96
97
66
70
63
67
64
74
85
79
86
80
75
92
81
68
71
61
51
49
46
179
157
181
159
183
161
185
163
187
165
189
167
191
169
193
171
195
173
197
175
199
177
201
200
176
198
174
196
172
194
170
192
168
190
166
188
164
186
162
184
160
182
158
180
156
178
155
154
319
318
339
317
316
338
315
327
337
357
356
355
326
314
325
354
353
352
313
312
336
311
335
351
350
334
324
310
309
349
-1
DEPOT_SECTION
1
-1
EOF
